p tw 1120 16801 7 
1 8 
1 241 
2 9 
2 10 
2 242 
3 7 
3 10 
3 281 
4 8 
4 9 
4 282 
5 7 
5 9 
5 671 
6 8 
6 10 
6 672 
11 17 
11 18 
11 381 
12 19 
12 20 
12 382 
13 17 
13 20 
13 661 
14 18 
14 19 
14 662 
15 17 
15 19 
15 981 
16 18 
16 20 
16 982 
21 27 
21 28 
21 101 
22 29 
22 30 
22 102 
23 27 
23 30 
23 471 
24 28 
24 29 
24 472 
25 27 
25 29 
25 631 
26 28 
26 30 
26 632 
31 37 
31 38 
31 81 
32 39 
32 40 
32 82 
33 37 
33 40 
33 1011 
34 38 
34 39 
34 1012 
35 37 
35 39 
35 1081 
36 38 
36 40 
36 1082 
41 47 
41 48 
41 243 
42 49 
42 50 
42 244 
43 47 
43 50 
43 741 
44 48 
44 49 
44 742 
45 47 
45 49 
45 1101 
46 48 
46 50 
46 1102 
51 57 
51 58 
51 181 
52 59 
52 60 
52 182 
53 57 
53 60 
53 201 
54 58 
54 59 
54 202 
55 57 
55 59 
55 881 
56 58 
56 60 
56 882 
61 67 
61 68 
61 211 
62 69 
62 70 
62 212 
63 67 
63 70 
63 261 
64 68 
64 69 
64 262 
65 67 
65 69 
65 1013 
66 68 
66 70 
66 1014 
71 77 
71 78 
71 131 
72 79 
72 80 
72 132 
73 77 
73 80 
73 673 
74 78 
74 79 
74 674 
75 77 
75 79 
75 1061 
76 78 
76 80 
76 1062 
81 87 
81 88 
82 89 
82 90 
83 87 
83 90 
83 521 
84 88 
84 89 
84 522 
85 87 
85 89 
85 921 
86 88 
86 90 
86 922 
91 97 
91 98 
91 421 
92 99 
92 100 
92 422 
93 97 
93 100 
93 831 
94 98 
94 99 
94 832 
95 97 
95 99 
95 1111 
96 98 
96 100 
96 1112 
101 107 
101 108 
102 109 
102 110 
103 107 
103 110 
103 663 
104 108 
104 109 
104 664 
105 107 
105 109 
105 991 
106 108 
106 110 
106 992 
111 117 
111 118 
111 301 
112 119 
112 120 
112 302 
113 117 
113 120 
113 761 
114 118 
114 119 
114 762 
115 117 
115 119 
115 951 
116 118 
116 120 
116 952 
121 127 
121 128 
121 531 
122 129 
122 130 
122 532 
123 127 
123 130 
123 621 
124 128 
124 129 
124 622 
125 127 
125 129 
125 665 
126 128 
126 130 
126 666 
131 137 
131 138 
132 139 
132 140 
133 137 
133 140 
133 383 
134 138 
134 139 
134 384 
135 137 
135 139 
135 691 
136 138 
136 140 
136 692 
141 147 
141 148 
141 251 
142 149 
142 150 
142 252 
143 147 
143 150 
143 423 
144 148 
144 149 
144 424 
145 147 
145 149 
145 791 
146 148 
146 150 
146 792 
151 157 
151 158 
151 271 
152 159 
152 160 
152 272 
153 157 
153 160 
153 891 
154 158 
154 159 
154 892 
155 157 
155 159 
155 1001 
156 158 
156 160 
156 1002 
161 167 
161 168 
161 731 
162 169 
162 170 
162 732 
163 167 
163 170 
163 841 
164 168 
164 169 
164 842 
165 167 
165 169 
165 1021 
166 168 
166 170 
166 1022 
171 177 
171 178 
171 401 
172 179 
172 180 
172 402 
173 177 
173 180 
173 811 
174 178 
174 179 
174 812 
175 177 
175 179 
175 861 
176 178 
176 180 
176 862 
181 187 
181 188 
182 189 
182 190 
183 187 
183 190 
183 221 
184 188 
184 189 
184 222 
185 187 
185 189 
185 541 
186 188 
186 190 
186 542 
191 197 
191 198 
191 371 
192 199 
192 200 
192 372 
193 197 
193 200 
193 641 
194 198 
194 199 
194 642 
195 197 
195 199 
195 1071 
196 198 
196 200 
196 1072 
201 207 
201 208 
202 209 
202 210 
203 207 
203 210 
203 431 
204 208 
204 209 
204 432 
205 207 
205 209 
205 701 
206 208 
206 210 
206 702 
211 217 
211 218 
212 219 
212 220 
213 217 
213 220 
213 331 
214 218 
214 219 
214 332 
215 217 
215 219 
215 751 
216 218 
216 220 
216 752 
221 227 
221 228 
222 229 
222 230 
223 227 
223 230 
223 681 
224 228 
224 229 
224 682 
225 227 
225 229 
225 1091 
226 228 
226 230 
226 1092 
231 237 
231 238 
231 481 
232 239 
232 240 
232 482 
233 237 
233 240 
233 543 
234 238 
234 239 
234 544 
235 237 
235 239 
235 771 
236 238 
236 240 
236 772 
241 247 
241 248 
242 249 
242 250 
243 247 
243 250 
244 248 
244 249 
245 247 
245 249 
245 693 
246 248 
246 250 
246 694 
251 257 
251 258 
252 259 
252 260 
253 257 
253 260 
253 871 
254 258 
254 259 
254 872 
255 257 
255 259 
255 1031 
256 258 
256 260 
256 1032 
261 267 
261 268 
262 269 
262 270 
263 267 
263 270 
263 893 
264 268 
264 269 
264 894 
265 267 
265 269 
265 1051 
266 268 
266 270 
266 1052 
271 277 
271 278 
272 279 
272 280 
273 277 
273 280 
273 441 
274 278 
274 279 
274 442 
275 277 
275 279 
275 683 
276 278 
276 280 
276 684 
281 287 
281 288 
282 289 
282 290 
283 287 
283 290 
283 703 
284 288 
284 289 
284 704 
285 287 
285 289 
285 1053 
286 288 
286 290 
286 1054 
291 297 
291 298 
291 611 
292 299 
292 300 
292 612 
293 297 
293 300 
293 711 
294 298 
294 299 
294 712 
295 297 
295 299 
295 843 
296 298 
296 300 
296 844 
301 307 
301 308 
302 309 
302 310 
303 307 
303 310 
303 451 
304 308 
304 309 
304 452 
305 307 
305 309 
305 1073 
306 308 
306 310 
306 1074 
311 317 
311 318 
311 351 
312 319 
312 320 
312 352 
313 317 
313 320 
313 491 
314 318 
314 319 
314 492 
315 317 
315 319 
315 781 
316 318 
316 320 
316 782 
321 327 
321 328 
321 385 
322 329 
322 330 
322 386 
323 327 
323 330 
323 483 
324 328 
324 329 
324 484 
325 327 
325 329 
325 1041 
326 328 
326 330 
326 1042 
331 337 
331 338 
332 339 
332 340 
333 337 
333 340 
333 591 
334 338 
334 339 
334 592 
335 337 
335 339 
335 813 
336 338 
336 340 
336 814 
341 347 
341 348 
341 391 
342 349 
342 350 
342 392 
343 347 
343 350 
343 443 
344 348 
344 349 
344 444 
345 347 
345 349 
345 651 
346 348 
346 350 
346 652 
351 357 
351 358 
352 359 
352 360 
353 357 
353 360 
353 923 
354 358 
354 359 
354 924 
355 357 
355 359 
355 953 
356 358 
356 360 
356 954 
361 367 
361 368 
361 883 
362 369 
362 370 
362 884 
363 367 
363 370 
363 1023 
364 368 
364 369 
364 1024 
365 367 
365 369 
365 1075 
366 368 
366 370 
366 1076 
371 377 
371 378 
372 379 
372 380 
373 377 
373 380 
373 773 
374 378 
374 379 
374 774 
375 377 
375 379 
375 931 
376 378 
376 380 
376 932 
381 387 
381 388 
382 389 
382 390 
383 387 
383 390 
384 388 
384 389 
385 387 
385 389 
386 388 
386 390 
391 397 
391 398 
392 399 
392 400 
393 397 
393 400 
393 551 
394 398 
394 399 
394 552 
395 397 
395 399 
395 1093 
396 398 
396 400 
396 1094 
401 407 
401 408 
402 409 
402 410 
403 407 
403 410 
403 433 
404 408 
404 409 
404 434 
405 407 
405 409 
405 685 
406 408 
406 410 
406 686 
411 417 
411 418 
411 581 
412 419 
412 420 
412 582 
413 417 
413 420 
413 783 
414 418 
414 419 
414 784 
415 417 
415 419 
415 863 
416 418 
416 420 
416 864 
421 427 
421 428 
422 429 
422 430 
423 427 
423 430 
424 428 
424 429 
425 427 
425 429 
425 753 
426 428 
426 430 
426 754 
431 437 
431 438 
432 439 
432 440 
433 437 
433 440 
434 438 
434 439 
435 437 
435 439 
435 545 
436 438 
436 440 
436 546 
441 447 
441 448 
442 449 
442 450 
443 447 
443 450 
444 448 
444 449 
445 447 
445 449 
445 733 
446 448 
446 450 
446 734 
451 457 
451 458 
452 459 
452 460 
453 457 
453 460 
453 713 
454 458 
454 459 
454 714 
455 457 
455 459 
455 1015 
456 458 
456 460 
456 1016 
461 467 
461 468 
461 941 
462 469 
462 470 
462 942 
463 467 
463 470 
463 1003 
464 468 
464 469 
464 1004 
465 467 
465 469 
465 1083 
466 468 
466 470 
466 1084 
471 477 
471 478 
472 479 
472 480 
473 477 
473 480 
473 755 
474 478 
474 479 
474 756 
475 477 
475 479 
475 815 
476 478 
476 480 
476 816 
481 487 
481 488 
482 489 
482 490 
483 487 
483 490 
484 488 
484 489 
485 487 
485 489 
485 943 
486 488 
486 490 
486 944 
491 497 
491 498 
492 499 
492 500 
493 497 
493 500 
493 1033 
494 498 
494 499 
494 1034 
495 497 
495 499 
495 1103 
496 498 
496 500 
496 1104 
501 507 
501 508 
501 653 
502 509 
502 510 
502 654 
503 507 
503 510 
503 971 
504 508 
504 509 
504 972 
505 507 
505 509 
505 1113 
506 508 
506 510 
506 1114 
511 517 
511 518 
511 633 
512 519 
512 520 
512 634 
513 517 
513 520 
513 873 
514 518 
514 519 
514 874 
515 517 
515 519 
515 1063 
516 518 
516 520 
516 1064 
521 527 
521 528 
522 529 
522 530 
523 527 
523 530 
523 533 
524 528 
524 529 
524 534 
525 527 
525 529 
525 801 
526 528 
526 530 
526 802 
531 537 
531 538 
532 539 
532 540 
533 537 
533 540 
534 538 
534 539 
535 537 
535 539 
535 561 
536 538 
536 540 
536 562 
541 547 
541 548 
542 549 
542 550 
543 547 
543 550 
544 548 
544 549 
545 547 
545 549 
546 548 
546 550 
551 557 
551 558 
552 559 
552 560 
553 557 
553 560 
553 721 
554 558 
554 559 
554 722 
555 557 
555 559 
555 851 
556 558 
556 560 
556 852 
561 567 
561 568 
562 569 
562 570 
563 567 
563 570 
563 743 
564 568 
564 569 
564 744 
565 567 
565 569 
565 961 
566 568 
566 570 
566 962 
571 577 
571 578 
571 821 
572 579 
572 580 
572 822 
573 577 
573 580 
573 853 
574 578 
574 579 
574 854 
575 577 
575 579 
575 1085 
576 578 
576 580 
576 1086 
581 587 
581 588 
582 589 
582 590 
583 587 
583 590 
583 803 
584 588 
584 589 
584 804 
585 587 
585 589 
585 901 
586 588 
586 590 
586 902 
591 597 
591 598 
592 599 
592 600 
593 597 
593 600 
593 805 
594 598 
594 599 
594 806 
595 597 
595 599 
595 833 
596 598 
596 600 
596 834 
601 607 
601 608 
601 715 
602 609 
602 610 
602 716 
603 607 
603 610 
603 983 
604 608 
604 609 
604 984 
605 607 
605 609 
605 1005 
606 608 
606 610 
606 1006 
611 617 
611 618 
612 619 
612 620 
613 617 
613 620 
613 623 
614 618 
614 619 
614 624 
615 617 
615 619 
615 1025 
616 618 
616 620 
616 1026 
621 627 
621 628 
622 629 
622 630 
623 627 
623 630 
624 628 
624 629 
625 627 
625 629 
625 1095 
626 628 
626 630 
626 1096 
631 637 
631 638 
632 639 
632 640 
633 637 
633 640 
634 638 
634 639 
635 637 
635 639 
635 1105 
636 638 
636 640 
636 1106 
641 647 
641 648 
642 649 
642 650 
643 647 
643 650 
643 675 
644 648 
644 649 
644 676 
645 647 
645 649 
645 993 
646 648 
646 650 
646 994 
651 657 
651 658 
652 659 
652 660 
653 657 
653 660 
654 658 
654 659 
655 657 
655 659 
655 785 
656 658 
656 660 
656 786 
661 667 
661 668 
662 669 
662 670 
663 667 
663 670 
664 668 
664 669 
665 667 
665 669 
666 668 
666 670 
671 677 
671 678 
672 679 
672 680 
673 677 
673 680 
674 678 
674 679 
675 677 
675 679 
676 678 
676 680 
681 687 
681 688 
682 689 
682 690 
683 687 
683 690 
684 688 
684 689 
685 687 
685 689 
686 688 
686 690 
691 697 
691 698 
692 699 
692 700 
693 697 
693 700 
694 698 
694 699 
695 697 
695 699 
695 723 
696 698 
696 700 
696 724 
701 707 
701 708 
702 709 
702 710 
703 707 
703 710 
704 708 
704 709 
705 707 
705 709 
705 1043 
706 708 
706 710 
706 1044 
711 717 
711 718 
712 719 
712 720 
713 717 
713 720 
714 718 
714 719 
715 717 
715 719 
716 718 
716 720 
721 727 
721 728 
722 729 
722 730 
723 727 
723 730 
724 728 
724 729 
725 727 
725 729 
725 745 
726 728 
726 730 
726 746 
731 737 
731 738 
732 739 
732 740 
733 737 
733 740 
734 738 
734 739 
735 737 
735 739 
735 903 
736 738 
736 740 
736 904 
741 747 
741 748 
742 749 
742 750 
743 747 
743 750 
744 748 
744 749 
745 747 
745 749 
746 748 
746 750 
751 757 
751 758 
752 759 
752 760 
753 757 
753 760 
754 758 
754 759 
755 757 
755 759 
756 758 
756 760 
761 767 
761 768 
762 769 
762 770 
763 767 
763 770 
763 823 
764 768 
764 769 
764 824 
765 767 
765 769 
765 895 
766 768 
766 770 
766 896 
771 777 
771 778 
772 779 
772 780 
773 777 
773 780 
774 778 
774 779 
775 777 
775 779 
775 933 
776 778 
776 780 
776 934 
781 787 
781 788 
782 789 
782 790 
783 787 
783 790 
784 788 
784 789 
785 787 
785 789 
786 788 
786 790 
791 797 
791 798 
792 799 
792 800 
793 797 
793 800 
793 835 
794 798 
794 799 
794 836 
795 797 
795 799 
795 1045 
796 798 
796 800 
796 1046 
801 807 
801 808 
802 809 
802 810 
803 807 
803 810 
804 808 
804 809 
805 807 
805 809 
806 808 
806 810 
811 817 
811 818 
812 819 
812 820 
813 817 
813 820 
814 818 
814 819 
815 817 
815 819 
816 818 
816 820 
821 827 
821 828 
822 829 
822 830 
823 827 
823 830 
824 828 
824 829 
825 827 
825 829 
825 885 
826 828 
826 830 
826 886 
831 837 
831 838 
832 839 
832 840 
833 837 
833 840 
834 838 
834 839 
835 837 
835 839 
836 838 
836 840 
841 847 
841 848 
842 849 
842 850 
843 847 
843 850 
844 848 
844 849 
845 847 
845 849 
845 973 
846 848 
846 850 
846 974 
851 857 
851 858 
852 859 
852 860 
853 857 
853 860 
854 858 
854 859 
855 857 
855 859 
855 875 
856 858 
856 860 
856 876 
861 867 
861 868 
862 869 
862 870 
863 867 
863 870 
864 868 
864 869 
865 867 
865 869 
865 975 
866 868 
866 870 
866 976 
871 877 
871 878 
872 879 
872 880 
873 877 
873 880 
874 878 
874 879 
875 877 
875 879 
876 878 
876 880 
881 887 
881 888 
882 889 
882 890 
883 887 
883 890 
884 888 
884 889 
885 887 
885 889 
886 888 
886 890 
891 897 
891 898 
892 899 
892 900 
893 897 
893 900 
894 898 
894 899 
895 897 
895 899 
896 898 
896 900 
901 907 
901 908 
902 909 
902 910 
903 907 
903 910 
904 908 
904 909 
905 907 
905 909 
905 925 
906 908 
906 910 
906 926 
911 917 
911 918 
911 945 
912 919 
912 920 
912 946 
913 917 
913 920 
913 963 
914 918 
914 919 
914 964 
915 917 
915 919 
915 995 
916 918 
916 920 
916 996 
921 927 
921 928 
922 929 
922 930 
923 927 
923 930 
924 928 
924 929 
925 927 
925 929 
926 928 
926 930 
931 937 
931 938 
932 939 
932 940 
933 937 
933 940 
934 938 
934 939 
935 937 
935 939 
935 1065 
936 938 
936 940 
936 1066 
941 947 
941 948 
942 949 
942 950 
943 947 
943 950 
944 948 
944 949 
945 947 
945 949 
946 948 
946 950 
951 957 
951 958 
952 959 
952 960 
953 957 
953 960 
954 958 
954 959 
955 957 
955 959 
955 1035 
956 958 
956 960 
956 1036 
961 967 
961 968 
962 969 
962 970 
963 967 
963 970 
964 968 
964 969 
965 967 
965 969 
965 985 
966 968 
966 970 
966 986 
971 977 
971 978 
972 979 
972 980 
973 977 
973 980 
974 978 
974 979 
975 977 
975 979 
976 978 
976 980 
981 987 
981 988 
982 989 
982 990 
983 987 
983 990 
984 988 
984 989 
985 987 
985 989 
986 988 
986 990 
991 997 
991 998 
992 999 
992 1000 
993 997 
993 1000 
994 998 
994 999 
995 997 
995 999 
996 998 
996 1000 
1001 1007 
1001 1008 
1002 1009 
1002 1010 
1003 1007 
1003 1010 
1004 1008 
1004 1009 
1005 1007 
1005 1009 
1006 1008 
1006 1010 
1011 1017 
1011 1018 
1012 1019 
1012 1020 
1013 1017 
1013 1020 
1014 1018 
1014 1019 
1015 1017 
1015 1019 
1016 1018 
1016 1020 
1021 1027 
1021 1028 
1022 1029 
1022 1030 
1023 1027 
1023 1030 
1024 1028 
1024 1029 
1025 1027 
1025 1029 
1026 1028 
1026 1030 
1031 1037 
1031 1038 
1032 1039 
1032 1040 
1033 1037 
1033 1040 
1034 1038 
1034 1039 
1035 1037 
1035 1039 
1036 1038 
1036 1040 
1041 1047 
1041 1048 
1042 1049 
1042 1050 
1043 1047 
1043 1050 
1044 1048 
1044 1049 
1045 1047 
1045 1049 
1046 1048 
1046 1050 
1051 1057 
1051 1058 
1052 1059 
1052 1060 
1053 1057 
1053 1060 
1054 1058 
1054 1059 
1055 1057 
1055 1059 
1055 1115 
1056 1058 
1056 1060 
1056 1116 
1061 1067 
1061 1068 
1062 1069 
1062 1070 
1063 1067 
1063 1070 
1064 1068 
1064 1069 
1065 1067 
1065 1069 
1066 1068 
1066 1070 
1071 1077 
1071 1078 
1072 1079 
1072 1080 
1073 1077 
1073 1080 
1074 1078 
1074 1079 
1075 1077 
1075 1079 
1076 1078 
1076 1080 
1081 1087 
1081 1088 
1082 1089 
1082 1090 
1083 1087 
1083 1090 
1084 1088 
1084 1089 
1085 1087 
1085 1089 
1086 1088 
1086 1090 
1091 1097 
1091 1098 
1092 1099 
1092 1100 
1093 1097 
1093 1100 
1094 1098 
1094 1099 
1095 1097 
1095 1099 
1096 1098 
1096 1100 
1101 1107 
1101 1108 
1102 1109 
1102 1110 
1103 1107 
1103 1110 
1104 1108 
1104 1109 
1105 1107 
1105 1109 
1106 1108 
1106 1110 
1111 1117 
1111 1118 
1112 1119 
1112 1120 
1113 1117 
1113 1120 
1114 1118 
1114 1119 
1115 1117 
1115 1119 
1116 1118 
1116 1120 
